NAME : tsp_421_sol.txt
COMMENT : OR-Tools Guided Local Search
TYPE : TOUR
DIMENSION : 50
COST : 5369
STATUS : ROUTING_SUCCESS
GAP : 0.00% (Reference Solution)
TOUR_SECTION
1
36
42
18
9
19
41
33
29
13
22
3
16
26
11
46
49
27
8
48
5
44
10
45
38
37
34
24
21
50
47
32
30
20
28
23
12
43
4
14
2
25
17
31
15
6
39
40
7
35
-1
